InboundTrucks  = 12;
OutboundTrucks = 8;
InboundDoors   = 2;
OutboundDoors  = 1;
ReleaseTime    = [12,10,2,11,6,9,10,3,7,6,9,4];
UnloadTime     = [11,10,9,9,12,6,7,8,5,12,2,3];
LoadTime       = [12,4,6,1,4,9,7,4];
TransferTime   = [| 1,0,1,0,1,0,0,2 | 1,1,0,0,0,0,2,0 | 0,3,0,5,4,0,3,0 | 0,0,0,0,4,0,0,0 | 0,0,1,0,0,0,0,0 | 0,0,0,0,0,0,0,0 | 0,0,0,2,0,0,0,3 | 0,2,0,0,4,3,0,0 | 1,5,3,0,2,0,0,0 | 0,0,0,0,0,0,5,0 | 0,1,0,1,0,0,0,0 | 0,3,0,0,2,0,0,0 |];
